Results/Experiment 1 Results/New Benchmark/RES_60/output_p1_0.00_p2_0.00_n_60_19.txt
solutions: 373248 nodes: 678154  modelTime: 115  solveTime: 2388  totalTime: 2514  modelSize: 7853  readTime: 11 matchingSize: 30
